sat
(:added-eqs                       17546
 :arith-eq-adapter                552
 :arith-bound-propagations-lp     337
 :arith-branch                    10
 :arith-conflicts                 906
 :arith-cube-calls                3
 :arith-diseq                     2322
 :arith-fixed-eqs                 1764
 :arith-gcd-calls                 116
 :arith-gomory-cuts               2
 :arith-grobner-calls             145
 :arith-grobner-conflicts         26
 :arith-hnf-calls                 3
 :arith-horner-calls              30
 :arith-horner-cross-nested-forms 3132
 :arith-lower                     4350
 :arith-make-feasible             2787
 :arith-max-columns               1531
 :arith-max-rows                  540
 :arith-nla-add-bounds            53
 :arith-nla-lemmas                566
 :arith-nla-propagate-bounds      223
 :arith-nla-propagate-eq          12099
 :arith-nra-calls                 16
 :arith-offset-eqs                604
 :arith-patches                   116
 :arith-patches-success           103
 :arith-upper                     5400
 :binary-propagations             23209
 :card2bv-rewrites                1
 :conflicts                       180
 :decisions                       62114
 :del-clause                      604
 :elim-unconstrained              15
 :final-checks                    348
 :max-memory                      36.46
 :memory                          20.19
 :minimized-lits                  58
 :mk-bool-var                     3756
 :mk-clause                       1558
 :mk-clause-binary                26222
 :nlsat-conflicts                 1436
 :nlsat-decisions                 16
 :nlsat-propagations              112096
 :nlsat-stages                    65967
 :num-allocs                      577717009
 :num-checks                      1
 :propagations                    33087
 :restarts                        1
 :rlimit-count                    2120206
 :time                            0.98
 :total-time                      1.00)
